NAME: S051D1_25
COMMENT: 458.29
VEHICLE: 3
TIME: 13.8761
DIMENSION: 51
CAPACITY: 160
DELIVERY_SECTION
0 0 0
1 1 1.6
2 1 1.4
3 2 1.6
4 2 1.6
5 2 0.8
6 3 1.6
7 3 1.6
8 3 1.6
9 3 0.2
10 4 8
11 4 1.6
12 4 1.6
13 4 1.6
14 4 1.2
15 5 1.6
16 5 0.4
17 6 1.6
18 6 1.6
19 6 1.6
20 6 0.2
21 7 1.6
22 7 1.6
23 7 1.6
24 7 0.2
25 8 8
26 8 1
27 9 1.6
28 9 0.4
29 10 8
30 10 1.6
31 10 0.4
32 11 1.6
33 11 1.6
34 11 1.6
35 11 0.2
36 12 1.6
37 12 1.6
38 12 0.8
39 13 1.6
40 13 0.4
41 14 8
42 14 1.6
43 14 1.6
44 14 1.6
45 14 1.2
46 15 1.6
47 15 1.6
48 15 0.8
49 16 1.6
50 16 1.6
51 16 1.6
52 16 0.2
53 17 1.6
54 17 1.4
55 18 8
56 18 1.6
57 18 1.6
58 18 1.6
59 18 1.6
60 18 0.6
61 19 1.6
62 19 1.6
63 19 0.8
64 20 8
65 20 1.6
66 20 0.4
67 21 1.6
68 21 1.4
69 22 8
70 22 1.6
71 22 1.6
72 22 1.6
73 22 1.2
74 23 1.6
75 23 0.4
76 24 8
77 24 1.6
78 24 1.6
79 24 1.6
80 24 0.2
81 25 1.6
82 25 1.4
83 26 8
84 26 1.6
85 26 0.4
86 27 1.6
87 27 1.4
88 28 8
89 28 1.6
90 28 1.6
91 28 1.6
92 28 1.6
93 28 0.6
94 29 1.6
95 29 1.6
96 29 0.8
97 30 1.6
98 30 1.6
99 30 0.8
100 31 1.6
101 31 1.6
102 31 1.6
103 31 0.2
104 32 8
105 32 1.6
106 32 1.6
107 32 1.6
108 32 1.6
109 32 0.6
110 33 1.6
111 33 1.6
112 33 0.8
113 34 1.6
114 34 1.6
115 34 1.6
116 34 0.2
117 35 8
118 36 8
119 36 1.6
120 36 1.6
121 36 1.6
122 36 1.6
123 36 0.6
124 37 1.6
125 37 1.6
126 37 1.6
127 37 0.2
128 38 8
129 38 1.6
130 38 0.4
131 39 8
132 39 1.6
133 39 0.4
134 40 8
135 40 1.6
136 40 1.6
137 40 1.6
138 40 0.2
139 41 1.6
140 41 1.6
141 41 1.6
142 41 1.2
143 42 8
144 42 1.6
145 42 1.6
146 42 1.6
147 42 1.2
148 43 8
149 43 1.6
150 43 1.6
151 43 1.6
152 43 0.2
153 44 8
154 44 1.6
155 44 1.4
156 45 8
157 46 8
158 46 1.6
159 46 1.6
160 46 1.6
161 46 1.6
162 46 0.6
163 47 8
164 47 1.6
165 47 1.6
166 47 1.6
167 47 1.6
168 47 0.6
169 48 8
170 48 1.6
171 48 0.4
172 49 8
173 49 1
174 50 8
175 50 1.6
176 50 1.6
177 50 1.6
178 50 1.6
179 50 0.6
PICKUP_SECTION
NODE_SECTION
30 40

37 52

49 49

52 64

20 26

40 30

21 47

17 63

31 62

52 33

51 21

42 41

31 32

 5 25

12 42

36 16

52 41

27 23

17 33

13 13

57 58

62 42

42 57

16 57

8  5

7 38

27 68

30 48

43 67

58 48

58 27

37 69

38 46

46 10

61 33

62 63

63 69

32 22

45 35

59 15

 5  6

10 17

21 10
 
5 64

30 15

39 10

32 39

25 32

25 55

48 28

56 37
DISTANCE_SECTION
DEPOT_SECTION
0
EOF